67  40  91  59  110  52  189  226  228  114  149  142  123  230  146  76  212  143  179  71  28  107  229  51  160  161  3  100  235  168  39  236  25  62  81  11  21  152  240  222  18  36  38  234  69  53  233  74  144  63  220  122  215  185  175  64  89  171  43  79  191  41  188  196  46  98  30  60  75  203  141  217  55  135  166  44  176  68  56  2  105  199  126  183  205  178  206  121  108  119  231  207  42  209  34  93  118  80  116  198  10  167  35  214  37  109  164  32  99  96  177  45  155  95  148  140  61  104  202  133  125  83  72  16  92  29  88  58  232  15  225  1  227  237  82  131  169  139  117  129  192  145  159  147  8  111  154  66  210  137  127  157  23  5  70  22  180  115  57  47  162  65  239  101  14  187  97  172  224  151  136  186  201  26  33  73  9  86  6  153  24  4  238  49  13  190  138  216  120  174  213  170  194  103  84  200  182  163  85  20  132  78  128  211  204  219  223  77  113  102  50  197  156  218  94  124  112  12  181  31  150  173  27  54  221  48  17  7  130  165  90  158  87  106  193  184  195  134  208  19  67